; benchmark generated from python API
(set-info :status unknown)
(declare-datatypes ((IntState 0)) (((Mk1 (val1 Int)) (Mk2 (val2 Int)))))
 (declare-fun c_main_~y~0 () Int)
(declare-fun c_main_~x~0 () Int)
(assert
 (let (($x44 (exists ((|v_main_#t~nondet1_6_st| IntState) (val!78 Int) )(exists ((|v_main_#t~nondet1_5_st| IntState) (val!79 Int) )(let ((?x107 (+ (* 2 (val2 |v_main_#t~nondet1_6_st|)) (* 2 (val2 |v_main_#t~nondet1_5_st|)) 1)))
 (let (($x112 (not (= |v_main_#t~nondet1_5_st| (Mk1 val!79)))))
 (let (($x197 (not (= |v_main_#t~nondet1_6_st| (Mk1 val!78)))))
 (and $x197 $x112 (= ?x107 c_main_~y~0))))))
 )
 ))
 (let (($x18 (exists ((|v_main_#t~nondet0_5_st| IntState) (val!76 Int) )(exists ((|v_main_#t~nondet0_6_st| IntState) (val!77 Int) )(let ((?x107 (+ (* 2 (val2 |v_main_#t~nondet0_5_st|)) (* 2 (val2 |v_main_#t~nondet0_6_st|)) 1)))
 (let (($x112 (not (= |v_main_#t~nondet0_6_st| (Mk1 val!77)))))
 (let (($x197 (not (= |v_main_#t~nondet0_5_st| (Mk1 val!76)))))
 (and $x197 $x112 (= ?x107 c_main_~x~0))))))
 )
 ))
 (let (($x65 (exists ((|v_main_#t~nondet0_7| Int) )(exists ((|v_main_#t~nondet0_8| Int) )(exists ((|v_main_#t~nondet0_5| Int) )(exists ((|v_main_#t~nondet0_6| Int) )(let ((?x30 (* 2 |v_main_#t~nondet0_6|)))
 (let ((?x96 (* 2 |v_main_#t~nondet0_5|)))
 (let ((?x223 (* 2 |v_main_#t~nondet0_8|)))
 (let ((?x36 (* 2 |v_main_#t~nondet0_7|)))
 (let ((?x99 (+ ?x36 ?x223 ?x96 ?x30 1)))
 (= ?x99 c_main_~x~0)))))))
 )
 )
 )
 ))
 (let (($x183 (exists ((|v_main_#t~nondet1_8| Int) )(exists ((|v_main_#t~nondet1_6| Int) )(exists ((|v_main_#t~nondet1_7| Int) )(exists ((|v_main_#t~nondet1_5| Int) )(let ((?x30 (* 2 |v_main_#t~nondet1_5|)))
 (let ((?x96 (* 2 |v_main_#t~nondet1_7|)))
 (let ((?x223 (* 2 |v_main_#t~nondet1_6|)))
 (let ((?x36 (* 2 |v_main_#t~nondet1_8|)))
 (let ((?x99 (+ ?x36 ?x223 ?x96 ?x30 1)))
 (= ?x99 c_main_~y~0)))))))
 )
 )
 )
 ))
 (and (and $x183 $x65) (not (and $x18 $x44))))))))
(check-sat)
